60 60
74 1 1
88 24 1
77 16 1
7 98 1
81 9 1
71 22 1
88 29 1
39 100 1
45 85 1
98 31 1
11 68 1
88 16 1
86 9 1
46 67 1
66 41 1
87 92 1
83 1 1
70 35 1
67 39 1
68 31 1
88 5 1
86 30 1
65 99 1
88 32 1
66 21 1
75 36 1
93 21 1
81 44 1
87 48 1
10 4 1
76 53 1
83 17 1
24 37 1
78 33 1
82 49 1
88 52 1
28 38 1
91 25 1
89 5 1
75 50 1
96 1 1
78 27 1
6 82 1
1 8 1
80 25 1
73 42 1
92 4 1
100 29 1
72 10 1
15 78 1
89 45 1
58 60 1
73 8 1
87 6 1
93 48 1
87 4 1
81 17 1
71 5 1
71 13 1
75 10 1
100 100 
100 100 
100 100 
100 100 
100 100 
100 100 
100 100 
100 100 
100 100 
100 100 
100 100 
100 100 
100 100 
100 100 
100 100 
100 100 
100 100 
100 100 
100 100 
100 100 
100 100 
100 100 
100 100 
100 100 
100 100 
100 100 
100 100 
100 100 
100 100 
100 100 
100 100 
100 100 
100 100 
100 100 
100 100 
100 100 
100 100 
100 100 
100 100 
100 100 
100 100 
100 100 
100 100 
100 100 
100 100 
100 100 
100 100 
100 100 
100 100 
100 100 
100 100 
100 100 
100 100 
100 100 
100 100 
100 100 
100 100 
100 100 
100 100 
100 100 
